InboundTrucks  = 80;
OutboundTrucks = 40;
ReleaseTime    = [33,51,43,80,4,76,38,62,66,13,15,198,65,9,61,13,4,33,8,42,44,75,56,41,219,15,182,29,71,63,48,153,78,5,22,33,61,9,12,27,10,73,196,23,22,76,125,48,147,58,212,150,80,225,196,25,16,36,122,5,36,55,2,131,11,31,227,64,6,16,58,8,61,123,53,33,238,47,17,44];
UnloadTime     = [10,6,3,11,10,5,10,7,7,8,9,5,10,11,1,7,10,12,10,7,4,3,11,3,9,3,10,4,3,8,12,10,1,11,7,4,12,6,4,7,5,1,8,5,3,9,7,1,8,7,7,11,4,1,3,11,12,7,4,5,11,9,8,4,8,12,9,4,10,3,5,5,11,10,9,3,8,4,1,1];
LoadTime       = [5,3,4,4,6,6,3,7,5,8,5,12,4,2,2,11,1,5,7,5,5,12,12,11,5,5,4,3,6,3,3,10,2,1,2,10,6,2,8,9];
TransferTime   = [| 2,0,0,0,0,2,0,0,0,0,0,0,2,0,0,1,2,2,0,2,0,2,0,0,1,0,0,0,1,2,2,0,1,0,0,2,0,0,0,2 | 0,0,1,0,2,2,0,2,0,0,1,0,2,0,2,0,0,2,0,0,0,1,0,0,0,2,2,2,0,0,2,0,2,1,0,1,0,0,0,2 | 0,0,0,0,0,0,0,0,0,1,0,0,1,0,0,1,0,0,2,2,2,0,0,0,2,0,2,2,0,0,1,0,0,0,0,0,0,2,0,2 | 0,0,1,0,1,0,0,0,0,0,1,1,1,0,2,2,0,0,2,2,1,0,0,0,1,0,0,0,0,0,2,2,0,2,0,0,0,1,1,0 | 0,1,1,0,2,0,2,2,0,1,1,1,0,2,2,0,0,1,1,0,0,0,1,1,0,2,0,2,0,0,2,2,0,1,0,2,1,0,1,0 | 2,0,0,2,2,0,2,2,1,0,0,2,1,1,2,0,2,0,0,2,0,0,0,0,2,0,1,0,0,0,0,0,0,0,2,0,0,2,1,2 | 0,1,0,1,1,0,1,0,0,0,0,0,0,0,2,0,0,0,0,0,0,0,0,2,0,2,2,2,2,0,0,0,0,1,0,1,0,0,1,0 | 0,0,0,0,0,0,0,1,1,0,0,1,2,0,2,1,0,0,0,0,0,0,1,1,0,1,0,0,1,1,0,2,0,0,0,2,0,0,0,2 | 2,0,1,1,0,0,1,0,0,1,0,0,0,0,0,0,0,0,0,0,1,0,0,2,2,0,0,0,1,0,0,2,0,2,0,1,2,0,0,0 | 2,0,2,1,0,2,0,1,1,1,1,1,0,0,0,0,0,0,0,0,0,1,1,2,2,0,2,0,1,2,0,0,1,0,0,0,0,0,0,0 | 0,1,0,2,0,0,0,0,0,0,0,2,0,0,2,0,2,2,0,0,2,2,1,0,0,1,1,2,0,0,0,0,0,0,1,0,0,0,1,0 | 1,2,2,1,0,1,0,0,1,0,0,0,0,1,1,1,0,2,0,1,0,0,1,0,0,1,2,1,2,1,0,1,0,2,2,0,2,0,0,0 | 0,1,0,0,0,2,0,0,2,0,0,0,1,0,0,0,2,2,0,0,0,2,1,0,2,0,0,0,0,2,0,2,0,2,0,1,0,0,2,0 | 0,0,0,2,2,0,1,0,0,0,0,0,1,0,1,0,2,2,1,1,2,2,1,1,0,0,0,0,0,0,1,0,1,0,0,0,0,2,0,0 | 0,2,0,0,0,0,0,1,1,0,0,0,2,1,1,0,0,1,0,0,2,0,1,0,2,1,0,0,0,1,0,1,2,1,2,0,0,2,2,0 | 0,0,0,0,2,1,0,2,2,0,1,0,0,1,0,1,2,1,0,0,1,2,0,1,1,2,1,2,0,0,2,2,0,1,0,0,2,0,0,2 | 1,0,0,0,5,0,0,2,2,2,0,2,0,0,0,1,0,0,1,2,0,1,0,0,3,0,5,2,0,0,0,0,5,0,3,0,0,0,1,5 | 3,3,0,0,4,2,0,0,0,0,0,0,0,0,0,0,0,5,0,0,0,0,3,5,0,0,0,0,3,0,4,0,0,0,3,0,0,5,0,0 | 0,0,0,0,1,4,0,0,0,2,4,0,4,0,0,0,2,0,0,0,0,0,3,0,0,0,0,0,0,1,0,0,4,2,3,0,0,0,0,0 | 0,0,0,0,5,0,0,3,0,0,4,0,5,2,0,0,0,0,1,0,0,0,0,0,0,0,0,1,0,5,1,0,0,2,0,2,4,0,5,0 | 4,0,0,0,0,0,0,0,0,0,1,0,0,1,0,0,0,0,0,0,0,0,0,0,1,0,5,2,0,5,0,0,0,5,0,3,0,3,0,0 | 0,0,0,0,0,0,0,0,0,0,0,0,0,0,4,4,3,0,2,0,0,0,0,0,0,0,0,0,0,0,0,0,0,0,4,2,3,0,2,0 | 0,3,0,0,0,5,1,0,1,0,2,0,2,0,0,0,5,0,0,0,4,0,0,0,4,0,0,0,0,2,0,0,5,0,5,0,0,0,0,0 | 4,0,2,0,4,1,3,0,0,0,0,0,0,0,0,2,0,0,0,2,4,3,0,0,2,0,3,0,0,0,0,2,3,0,3,0,0,4,4,0 | 0,0,0,0,0,4,0,0,0,0,0,4,5,0,0,0,4,3,0,3,5,0,5,0,0,0,0,0,0,0,5,4,0,5,0,0,0,0,0,0 | 0,4,4,5,3,0,0,0,0,0,0,1,0,0,0,5,0,5,0,2,0,0,5,0,0,1,3,0,0,0,0,2,0,0,0,0,0,0,0,0 | 0,0,0,0,0,0,0,1,1,0,0,0,0,0,1,0,5,3,0,0,0,0,1,4,0,0,0,3,0,0,4,0,0,5,0,4,0,0,0,0 | 0,0,0,0,1,0,0,0,0,0,0,0,0,0,0,0,4,0,0,5,0,0,2,5,0,0,0,0,0,0,1,4,0,3,4,0,0,0,0,0 | 0,4,1,0,0,0,0,0,0,0,1,0,0,0,1,0,5,0,5,0,4,0,0,4,0,0,1,0,0,0,0,2,0,0,3,0,3,0,0,0 | 0,0,0,0,0,0,4,1,1,1,2,0,0,5,0,0,2,0,0,3,1,0,0,0,0,0,3,0,0,0,5,0,0,0,0,0,0,2,0,0 | 2,0,0,0,0,0,1,0,0,0,2,4,0,0,0,3,4,0,0,0,3,3,0,2,0,0,4,3,0,3,0,0,0,4,0,0,5,3,1,0 | 0,5,0,4,0,0,0,0,4,0,0,0,0,0,1,0,0,3,5,0,0,2,0,0,0,0,0,0,0,0,2,0,0,0,0,0,0,0,0,3 | 0,1,2,0,0,1,5,5,0,0,0,0,0,0,0,0,0,3,1,0,5,0,0,0,0,0,0,5,1,1,0,4,0,0,0,0,0,1,0,0 | 0,3,0,0,2,1,0,5,2,0,0,0,0,0,0,0,0,0,0,0,5,0,0,0,2,5,0,0,0,0,0,3,0,0,2,0,0,0,2,0 | 3,3,0,0,0,5,0,0,4,0,1,0,0,3,1,3,0,0,1,0,5,0,0,5,0,0,0,1,0,0,0,4,2,2,0,0,0,0,5,0 | 0,0,3,2,4,0,0,0,5,0,0,0,0,0,0,2,0,2,0,0,3,0,0,3,0,5,0,0,0,0,0,0,0,0,0,0,4,0,0,3 | 0,4,4,0,0,0,0,0,0,0,0,1,4,0,0,2,2,0,0,1,0,0,0,3,0,5,0,0,0,1,0,0,0,0,0,0,0,0,0,2 | 0,0,2,3,0,0,0,3,5,0,0,3,2,0,3,0,0,5,0,3,0,2,4,1,0,0,0,3,0,0,1,4,0,0,3,0,0,0,0,0 | 0,2,3,0,0,0,5,0,0,0,0,4,0,0,0,1,0,0,0,0,0,0,0,1,1,4,1,0,0,2,0,0,0,3,0,0,1,0,4,1 | 0,4,0,0,0,2,0,0,0,5,5,0,5,0,0,2,0,0,0,0,2,0,0,0,0,0,0,0,0,5,2,0,3,0,3,4,0,0,0,0 | 0,4,0,0,0,0,0,0,3,0,0,2,0,0,3,0,0,2,0,3,0,0,0,0,0,0,0,0,0,0,0,0,0,0,0,0,0,0,0,3 | 0,0,2,0,0,0,2,0,3,0,0,0,0,4,0,0,0,1,4,0,0,0,0,0,4,2,1,4,3,0,2,0,0,0,0,4,0,3,0,0 | 4,0,0,0,0,0,0,0,0,0,3,0,2,0,0,0,0,2,0,0,0,1,0,5,0,3,2,2,0,2,0,0,0,0,0,0,0,0,0,4 | 4,0,0,0,0,4,0,0,0,0,0,0,0,0,0,0,0,4,3,2,1,0,0,5,0,0,0,0,0,2,0,0,0,3,5,4,0,0,0,2 | 1,0,0,0,1,0,2,0,0,2,1,0,0,0,0,4,3,0,0,0,5,2,0,0,1,0,3,0,0,0,0,0,3,0,5,0,3,4,0,0 | 0,0,1,0,0,0,0,0,3,4,5,0,0,4,4,0,2,0,2,0,4,3,1,1,0,5,0,2,0,4,0,0,0,0,0,0,2,0,4,0 | 0,0,4,0,0,0,0,0,0,1,0,5,0,1,0,0,0,0,0,4,0,0,4,0,4,0,0,0,2,0,4,0,5,0,5,0,0,0,3,3 | 0,5,0,5,0,0,0,0,1,3,0,0,2,0,4,4,0,0,0,4,0,0,3,5,5,0,0,4,0,0,0,3,0,0,0,0,0,0,0,2 | 0,0,4,0,0,0,5,0,0,0,0,0,4,0,0,0,0,1,0,3,0,1,0,0,2,0,3,1,4,0,4,0,0,0,2,1,0,1,5,2 | 4,4,0,0,0,5,0,0,0,1,1,0,0,0,0,0,0,0,0,5,0,2,0,0,0,0,0,3,0,0,0,5,0,1,0,4,0,0,0,5 | 5,0,0,0,0,0,0,0,2,1,0,0,0,0,0,5,0,1,1,0,4,3,0,0,0,0,0,5,0,0,0,0,0,4,0,1,0,4,0,1 | 4,0,0,5,0,0,0,0,4,4,0,0,0,0,2,0,5,0,0,0,0,0,0,0,0,3,0,0,0,0,0,0,4,0,0,0,0,0,0,0 | 0,0,0,0,0,0,2,0,0,0,2,0,3,0,4,0,0,2,0,0,5,0,0,0,0,0,1,0,0,5,1,0,0,2,1,0,2,4,2,3 | 2,0,0,0,0,0,0,4,1,0,0,0,0,0,0,0,3,0,0,2,0,3,0,0,0,0,0,0,0,1,0,4,2,0,3,0,0,4,5,0 | 0,0,0,0,0,2,0,0,0,0,0,4,0,3,4,0,0,0,5,0,2,0,0,0,0,0,5,0,0,0,0,3,0,0,0,0,0,0,0,0 | 0,0,2,0,1,0,0,0,0,3,0,0,0,0,0,5,0,2,0,0,1,1,0,0,3,0,1,0,0,0,0,0,0,1,0,0,3,0,0,0 | 4,0,1,0,0,0,0,0,1,0,0,0,0,2,0,2,0,0,4,0,0,0,0,3,0,0,0,0,0,0,2,0,0,2,5,0,0,0,0,0 | 0,5,0,0,0,0,2,0,0,0,1,0,0,0,0,0,3,0,0,3,0,0,0,0,0,0,0,0,3,3,0,2,0,0,0,0,0,0,2,0 | 0,0,0,2,0,0,0,0,1,0,0,4,1,0,0,0,1,0,3,0,4,0,0,3,0,3,0,0,5,5,5,3,0,4,0,0,0,0,0,5 | 0,0,0,0,0,0,0,4,5,0,0,0,0,0,0,0,0,0,5,0,0,4,2,2,0,2,0,0,0,3,0,0,5,0,5,5,0,0,3,0 | 0,0,0,0,1,0,0,0,0,0,0,0,0,0,1,0,1,0,0,0,0,0,0,0,0,0,0,0,1,1,5,0,1,0,0,0,0,0,0,0 | 0,0,0,3,5,0,0,1,0,0,0,0,3,0,3,0,0,0,0,0,0,0,0,4,0,0,0,0,0,2,0,0,3,0,0,0,0,0,0,5 | 1,0,0,0,0,5,2,0,0,0,3,0,0,0,0,0,0,0,2,0,3,0,0,3,0,3,0,0,0,0,0,3,0,0,0,0,0,0,0,0 | 0,0,2,0,2,0,0,0,0,0,3,0,2,0,4,3,2,0,0,0,5,1,0,0,0,0,0,4,5,0,0,3,0,0,3,0,0,0,2,5 | 0,0,0,0,0,0,0,0,4,0,0,0,0,0,2,0,2,0,0,2,0,0,1,2,0,0,0,0,0,0,0,0,0,4,0,0,0,0,5,4 | 0,0,3,4,0,5,5,0,0,0,0,3,0,0,0,0,0,0,0,0,0,3,3,1,0,0,5,0,0,1,0,0,0,0,0,0,0,4,2,4 | 2,4,4,0,0,1,2,0,0,0,0,0,0,2,2,4,0,0,1,0,0,0,0,0,0,0,5,0,0,0,0,0,0,0,0,0,0,0,0,0 | 0,0,0,0,0,0,0,3,0,0,0,0,0,0,0,0,2,4,0,0,0,0,5,0,5,1,0,0,0,0,2,3,5,0,0,1,0,0,3,5 | 0,1,0,0,0,0,0,0,0,1,2,5,0,0,0,0,0,5,0,0,5,5,0,2,0,4,0,0,2,0,0,0,5,0,0,0,1,0,0,5 | 0,0,0,0,1,0,1,0,0,0,0,4,0,0,4,4,0,0,0,1,0,0,0,0,1,0,0,5,0,0,0,0,0,0,0,3,1,0,0,3 | 0,3,0,3,0,0,1,0,3,0,5,2,0,2,0,0,0,0,0,0,0,0,4,0,0,0,0,0,5,4,0,0,0,4,0,2,4,0,0,0 | 0,0,0,0,0,4,2,0,3,0,0,0,0,0,1,5,0,0,0,5,0,0,0,2,2,0,0,3,0,5,1,5,0,1,0,0,0,0,0,2 | 0,1,0,0,0,0,0,0,0,0,4,0,0,0,0,3,0,0,0,0,1,0,0,3,3,0,3,2,0,0,1,0,0,0,0,0,0,0,0,0 | 5,0,1,0,4,0,0,0,0,0,0,0,0,5,4,0,0,0,3,1,4,5,4,0,0,5,0,0,0,0,0,4,0,5,0,0,2,0,0,5 | 0,0,0,0,0,2,0,0,0,3,0,0,0,0,3,4,0,4,0,2,0,0,0,0,2,0,0,1,0,0,0,4,0,5,0,0,0,0,0,0 | 0,0,0,0,4,0,0,0,0,0,5,0,0,0,4,1,1,0,0,0,0,5,0,4,0,0,0,5,0,4,4,0,3,0,0,0,0,0,0,1 | 0,2,0,0,0,1,0,5,0,4,2,0,0,0,0,0,0,0,0,4,0,0,0,3,0,0,0,0,1,0,0,5,1,0,0,0,0,0,0,1 | 0,5,0,0,2,3,0,0,0,0,3,0,0,2,0,0,0,0,0,0,0,2,3,2,0,2,0,0,0,0,0,0,0,0,0,0,0,0,0,2 | 0,5,4,0,2,4,0,0,4,0,4,0,0,0,0,0,0,0,0,0,0,0,0,0,0,0,0,0,0,0,0,0,5,0,0,3,0,0,0,5 | 0,2,0,0,4,0,0,0,0,0,5,0,0,0,0,0,1,0,0,0,0,0,1,0,5,0,0,0,4,2,0,0,0,0,0,0,0,0,0,0 |];
